proyfinal/src/viki/013/experimentInOfficeAgust.take6.output/d0bfd1c2-784c-45ae-ac0e-5d60bde7fbc6.als.out
Reading from standard input... Use '--help' for help.
============================[ Problem Statistics ]=============================
|                                                                             |
|  Number of variables:         87638                                         |
|  Number of clauses:          161767                                         |
|  Parse time:                   0.04 s                                       |
|                                                                             |
============================[ Search Statistics ]==============================
| Conflicts |          ORIGINAL         |          LEARNT          | Progress |
|           |    Vars  Clauses Literals |    Limit  Clauses Lit/Cl |          |
===============================================================================
|       100 |   63854   110436   276103 |    40493      100     39 | 27.139 % |
|       250 |   63824   110274   275739 |    44542      248     81 | 27.173 % |
|       475 |   63824   110274   275739 |    48996      473    101 | 27.173 % |
|       812 |   63824   110274   275739 |    53896      810     94 | 27.173 % |
|      1318 |   63824   110274   275739 |    59286     1316    105 | 27.173 % |
|      2077 |   63824   110274   275739 |    65214     2075     99 | 27.173 % |
|      3216 |   63824   110274   275739 |    71736     3214     91 | 27.173 % |
|      4924 |   63824   110274   275739 |    78909     4922     92 | 27.173 % |
|      7486 |   63778   110082   275299 |    86800     7482     99 | 27.226 % |
|     11330 |   63712   109830   274666 |    95480    11277     98 | 27.301 % |
===============================================================================
restarts              : 63
conflicts             : 16334          (5729 /sec)
decisions             : 50529          (0.00 % random) (17722 /sec)
propagations          : 26698426       (9363824 /sec)
conflict literals     : 1623643        (55.23 % deleted)
Memory used           : 44.54 MB
CPU time              : 2.85123 s

INDETERMINATE
